Problem:    chitarre
Rows:       5
Columns:    3
Non-zeros:  15
Status:     OPTIMAL
Objective:  z = 12786.66667 (MAXimum)

   No.   Row name   St   Activity     Lower bound   Upper bound    Marginal
------ ------------ -- ------------- ------------- ------------- -------------
     1 Min_Chitarre NL           100           100                    -15.3333 
     2 Ore_lavorative[1]
                    B        162.667                         400 
     3 Ore_lavorative[2]
                    NU           200                         200            24 
     4 Ore_lavorative[3]
                    NU           120                         120       79.3333 
     5 z            B        12786.7                             

   No. Column name  St   Activity     Lower bound   Upper bound    Marginal
------ ------------ -- ------------- ------------- ------------- -------------
     1 x[1]         B        6.66667             0               
     2 x[2]         B        18.6667             0               
     3 x[3]         B        74.6667             0               

Karush-Kuhn-Tucker optimality conditions:

KKT.PE: max.abs.err = 0.00e+00 on row 0
        max.rel.err = 0.00e+00 on row 0
        High quality

KKT.PB: max.abs.err = 0.00e+00 on row 0
        max.rel.err = 0.00e+00 on row 0
        High quality

KKT.DE: max.abs.err = 2.84e-14 on column 2
        max.rel.err = 8.08e-17 on column 2
        High quality

KKT.DB: max.abs.err = 0.00e+00 on row 0
        max.rel.err = 0.00e+00 on row 0
        High quality

End of output
